id: 518
name: pltexpa4_6
group: meszaros/stochlp
method: 2

Gurobi 7.0.2 (linux64, Matlab) logging started Mon Mar 26 10:11:22 2018


Gurobi 7.0.2 (linux64) logging started Mon Mar 26 10:11:22 2018

Optimize a model with 26894 rows, 70364 columns and 143059 nonzeros
Coefficient statistics:
  Matrix range     [1e+00, 1e+03]
  Objective range  [2e-07, 2e+02]
  Bounds range     [0e+00, 0e+00]
  RHS range        [2e+01, 1e+03]
Presolve removed 14274 rows and 47216 columns
Presolve time: 0.04s
Presolved: 12620 rows, 23148 columns, 75238 nonzeros

Ordering time: 0.10s

Barrier statistics:
 AA' NZ     : 2.246e+05
 Factor NZ  : 2.667e+06 (roughly 36 MBytes of memory)
 Factor Ops : 8.187e+08 (less than 1 second per iteration)
 Threads    : 4

                  Objective                Residual
Iter       Primal          Dual         Primal    Dual     Compl     Time
   0   6.57518695e+05  1.89541544e+02  2.03e+03 2.29e+01  8.73e+03     0s
   1   6.36522643e+05 -1.60719463e+07  1.82e+03 2.38e+00  5.78e+03     0s
   2   2.30611724e+04 -1.20230276e+07  6.62e+01 1.83e-01  5.08e+02     0s
   3   7.84989823e+02 -1.12559460e+06  1.55e+00 0.00e+00  3.30e+01     0s
   4   2.76774029e+02 -1.47769820e+05  2.99e-01 0.00e+00  4.33e+00     0s
   5   1.59859013e+02 -3.50677146e+04  9.96e-03 0.00e+00  9.93e-01     0s
   6   1.54594521e+02 -6.93638945e+03  4.14e-14 0.00e+00  1.99e-01     0s
   7   1.47218800e+02 -5.90364225e+03  3.13e-14 0.00e+00  1.70e-01     0s
   8   1.44053103e+02 -2.47477152e+03  4.36e-14 0.00e+00  7.35e-02     0s
   9   1.39430566e+02 -1.99814967e+03  4.18e-14 0.00e+00  6.00e-02     1s
  10   1.29100842e+02 -1.85749247e+03  2.74e-14 0.00e+00  5.58e-02     1s
  11   1.20389735e+02 -9.58295233e+02  1.58e-14 0.00e+00  3.03e-02     1s
  12   1.11467545e+02 -6.21682091e+02  1.28e-14 0.00e+00  2.06e-02     1s
  13   1.03780171e+02 -5.80382835e+02  1.16e-14 0.00e+00  1.92e-02     1s
  14   6.99604996e+01 -3.05444908e+02  1.18e-14 0.00e+00  1.05e-02     1s
  15   4.68997242e+01 -1.91134752e+02  7.45e-15 0.00e+00  6.68e-03     1s
  16   3.52649658e+01 -1.17339758e+02  5.13e-15 0.00e+00  4.29e-03     1s
  17   2.64544301e+01 -1.01148455e+02  4.08e-15 0.00e+00  3.58e-03     1s
  18   1.64452298e+01 -7.07682638e+01  3.78e-15 0.00e+00  2.45e-03     1s
  19   3.28573249e+00 -5.11065648e+01  3.99e-15 0.00e+00  1.53e-03     1s
  20  -1.52215803e+00 -4.12709691e+01  3.05e-15 0.00e+00  1.12e-03     1s
  21  -3.78642655e+00 -3.67233425e+01  2.58e-15 0.00e+00  9.25e-04     1s
  22  -6.53009354e+00 -3.19007574e+01  1.37e-15 0.00e+00  7.12e-04     1s
  23  -1.20347673e+01 -2.71987947e+01  7.91e-16 0.00e+00  4.26e-04     1s
  24  -1.50605818e+01 -2.45987417e+01  4.48e-16 0.00e+00  2.68e-04     1s
  25  -1.62422134e+01 -2.31257613e+01  2.99e-16 0.00e+00  1.93e-04     1s
  26  -1.73032621e+01 -2.21447465e+01  1.81e-16 0.00e+00  1.36e-04     1s
  27  -1.83455181e+01 -2.11873787e+01  8.94e-17 0.00e+00  7.98e-05     1s
  28  -1.93743190e+01 -1.97703266e+01  1.78e-17 0.00e+00  1.11e-05     1s
  29  -1.95487120e+01 -1.96245137e+01  3.12e-18 0.00e+00  2.13e-06     1s
  30  -1.95891636e+01 -1.96041699e+01  5.20e-19 0.00e+00  4.21e-07     1s
  31  -1.95977737e+01 -1.96003441e+01  6.50e-20 0.00e+00  7.22e-08     1s
  32  -1.95993950e+01 -1.95994438e+01  1.23e-21 0.00e+00  1.37e-09     1s
  33  -1.95994114e+01 -1.95994114e+01  6.62e-24 2.87e-14  9.73e-14     1s

Barrier solved model in 33 iterations and 1.23 seconds
Optimal objective -1.95994114e+01

Crossover log...

       0 DPushes remaining with DInf 1.3332309e-02                 1s

    4762 PPushes remaining with PInf 0.0000000e+00                 1s
       0 PPushes remaining with PInf 0.0000000e+00                 1s

  Push phase complete: Pinf 0.0000000e+00, Dinf 2.2144030e+00      1s

Iteration    Objective       Primal Inf.    Dual Inf.      Time
   11871   -1.9599411e+01   0.000000e+00   2.214403e+00      1s
   12561   -1.9599411e+01   0.000000e+00   0.000000e+00      1s

Solved in 12561 iterations and 1.31 seconds
Optimal objective -1.959941144e+01
status: OPTIMAL
